507477
507477
499894
499894
499894
499894
499894
495296
488384
486216
483330
483330
472913
472913
460378
460378
460378
460378
460378
459528
451216
449800
449800
449800
449800
449800
448311
448311
444775
444775
444775
442049
434431
434431
434431
424458
424458
424458
424458
424458
424458
424458
424458
424458
424458
424458
424458
416504
416504
416504
414058
414058
414058
414058
414058
413987
412612
412612
412612
412612
412612
412612
412612
412612
411886
411886
411886
411886
411886
411886
411886
411886
411886
411886
411886
411886
411886
411886
411886
411886
411886
411886
411886
411886
411886
411886
411886
411886
411886
411886
411886
411886
411886
411886
411886
411886
411886
411886
411886
411886
